language ESSENCE' 1.0
$ Minion SolverNodes: 2553
$ Minion SolverTotalTime: 0.068328
$ Minion SolverTimeOut: 0
$ Savile Row TotalTime: 0.623
letting M be [[51, 5, 27, 6, 29, 3, 9, 12, 8], 
[51, 5, 27, 6, 29, 3, 12, 8, -1], 
[51, 5, 27, 12, 29, 3, 8, -1, -1], 
[12, 5, 27, 29, 3, 8, -1, -1, -1], 
[5, 27, 29, 3, 8, -1, -1, -1, -1], 
[5, 29, 3, 8, -1, -1, -1, -1, -1], 
[5, 3, 8, -1, -1, -1, -1, -1, -1], 
[3, 8, -1, -1, -1, -1, -1, -1, -1], 
[8, -1, -1, -1, -1, -1, -1, -1, -1]]
